pair_coeff 1 1 lj/cut 0.105 3.43085
pair_coeff 1 2 lj/cut 0.0679705818718657 3.00099
pair_coeff 1 3 lj/cut 0.07937253933193772 3.2744999999999997
pair_coeff 1 4 lj/cut 0.07937253933193772 3.2744999999999997
pair_coeff 1 5 lj/cut 0.11410521460476729 2.9462
pair_coeff 1 6 lj/cut 0.12838983604631637 3.240425
pair_coeff 1 7 lj/cut 0.07505497984810867 3.115425
pair_coeff 2 2 lj/cut 0.044000000000000004 2.57113
pair_coeff 2 3 lj/cut 0.05138093031466052 2.84464
pair_coeff 2 4 lj/cut 0.05138093031466052 2.84464
pair_coeff 2 5 lj/cut 0.07386474125047755 2.51634
pair_coeff 2 6 lj/cut 0.08311173202382442 2.810565
pair_coeff 2 7 lj/cut 0.04858600621578193 2.685565
pair_coeff 3 3 lj/cut 0.06 3.11815
pair_coeff 3 4 lj/cut 0.06 3.11815
pair_coeff 3 5 lj/cut 0.08625543461139129 2.78985
pair_coeff 3 6 lj/cut 0.09705359344197412 3.084075
pair_coeff 3 7 lj/cut 0.056736231810017135 2.959075
pair_coeff 4 4 lj/cut 0.06 3.11815
pair_coeff 4 5 lj/cut 0.08625543461139129 2.78985
pair_coeff 4 6 lj/cut 0.09705359344197412 3.084075
pair_coeff 4 7 lj/cut 0.056736231810017135 2.959075
pair_coeff 5 5 lj/cut 0.124 2.46155
pair_coeff 5 6 lj/cut 0.1395233313822459 2.755775
pair_coeff 5 7 lj/cut 0.08156347221642787 2.630775
pair_coeff 6 6 lj/cut 0.15699000000000002 3.05
pair_coeff 6 7 lj/cut 0.0917742529253167 2.925
pair_coeff 7 7 lj/cut 0.05365 2.8

pair_coeff	1*6	6	coul/long		
pair_coeff	1*7	7	coul/long	
